NAME : POMORSKIE-n10
COMMENT : Auto generated by mgrVRP
TYPE : CVRP
DIMENSION : 10
EDGE_WEIGHT_TYPE : EUC_2D
CAPACITY : 200.0
NODE_COORD_SECTION
1 54.329211831237885 18.43434137452843
2 54.33308890085403 17.948598742427972
3 54.52314027402142 18.221722378636937
4 54.14118181668324 17.534980748724024
5 53.63543540833824 18.74278596446907
6 54.43967146159577 17.832231825421747
7 53.84381158632197 17.18854539704359
8 54.10559676364673 18.188624444109884
9 53.73932937176556 17.046770925665705
10 53.99984950491779 17.819060359581396
11 54.491410634430984 17.29571585741484
DEMAND_SECTION
1 0
2 41.0
3 52.0
4 38.0
5 57.0
6 55.0
7 35.0
8 59.0
9 44.0
10 38.0
11 57.0
DEPOT_SECTION
1
-1
EOF
